problems/csplib-prob056/sonet-models/noch/O0/minion/model_6_1-s2ring13-solution000001.solution
language Essence 1.3

letting network be mset({}, {1, 2, 3, 4, 5}, {1, 2, 3, 4, 5}, {1, 8}, {2, 4, 6, 7, 9}, {3, 5, 7, 10})
$ Here is a simple "visualisation" for the value above.
$ 
$  1  2  3  4  5
$  1  2  3  4  5
$  1  8
$  2  4  6  7  9
$  3  5  7 10

